p cnf 262 1244
15 118 0
75 130 0
80 125 127 0
91 103 137 175 0
140 156 0
60 109 155 0
54 86 0
72 96 111 164 0
99 227 0
121 169 0
23 77 0
69 105 145 0
63 158 0
159 160 0
16 70 83 132 0
39 76 129 166 0
89 168 0
92 123 170 0
13 133 171 172 0
8 9 174 0
113 138 147 150 0
64 65 67 141 154 0
51 53 56 57 59 88 0
45 46 48 49 50 85 0
44 93 97 110 0
43 73 106 149 163 0
38 41 79 0
33 35 98 167 0
28 29 31 135 0
25 26 27 162 0
22 68 112 146 0
62 66 0
52 55 58 87 0
19 20 116 0
14 17 82 0
37 78 204 0
12 124 0
10 11 0
6 7 102 120 126 0
148 151 176 177 0
143 218 260 0
61 139 157 179 0
114 180 0
181 182 0
74 183 0
32 34 100 136 246 0
30 122 184 185 187 0
189 190 192 248 0
-169 -194 0
-194 -195 0
-194 -196 0
-69 -194 0
-169 -195 0
-169 -196 0
-69 -169 0
-195 -196 0
-69 -195 0
-69 -196 0
-147 -171 0
-141 -171 0
-59 -171 0
-171 -197 0
-141 -147 0
-59 -147 0
-147 -197 0
-59 -141 0
-141 -197 0
-59 -197 0
-35 -198 0
-31 -198 0
-186 -198 0
-198 -199 0
-31 -35 0
-35 -186 0
-35 -199 0
-31 -186 0
-31 -199 0
-186 -199 0
-126 -128 0
-128 -176 0
-128 -260 0
-128 -200 0
-126 -176 0
-126 -260 0
-126 -200 0
-176 -260 0
-176 -200 0
-200 -260 0
-201 -202 0
-95 -201 0
-100 -201 0
-189 -201 0
-95 -202 0
-100 -202 0
-189 -202 0
-95 -100 0
-95 -189 0
-100 -189 0
-171 -194 0
-194 -198 0
-128 -194 0
-194 -201 0
-171 -198 0
-128 -171 0
-171 -201 0
-128 -198 0
-198 -201 0
-128 -201 0
-147 -169 0
-35 -169 0
-126 -169 0
-169 -202 0
-35 -147 0
-126 -147 0
-147 -202 0
-35 -126 0
-35 -202 0
-126 -202 0
-141 -195 0
-31 -195 0
-176 -195 0
-95 -195 0
-31 -141 0
-141 -176 0
-95 -141 0
-31 -176 0
-31 -95 0
-95 -176 0
-59 -196 0
-186 -196 0
-196 -260 0
-100 -196 0
-59 -186 0
-59 -260 0
-59 -100 0
-186 -260 0
-100 -186 0
-100 -260 0
-69 -197 0
-69 -199 0
-69 -200 0
-69 -189 0
-197 -199 0
-197 -200 0
-189 -197 0
-199 -200 0
-189 -199 0
-189 -200 0
-161 -205 0
-118 -161 0
-40 -161 0
-80 -161 0
-103 -161 0
-118 -205 0
-40 -205 0
-80 -205 0
-103 -205 0
-40 -118 0
-80 -118 0
-103 -118 0
-40 -80 0
-40 -103 0
-80 -103 0
-173 -208 0
-115 -173 0
-54 -173 0
-47 -173 0
-164 -173 0
-115 -208 0
-54 -208 0
-47 -208 0
-164 -208 0
-54 -115 0
-47 -115 0
-115 -164 0
-47 -54 0
-54 -164 0
-47 -164 0
-63 -210 0
-63 -212 0
-16 -63 0
-63 -129 0
-63 -214 0
-210 -212 0
-16 -210 0
-129 -210 0
-210 -214 0
-16 -212 0
-129 -212 0
-212 -214 0
-16 -129 0
-16 -214 0
-129 -214 0
-92 -174 0
-92 -216 0
-67 -92 0
-57 -92 0
-85 -92 0
-174 -216 0
-67 -174 0
-57 -174 0
-85 -174 0
-67 -216 0
-57 -216 0
-85 -216 0
-57 -67 0
-67 -85 0
-57 -85 0
-73 -93 0
-41 -93 0
-93 -135 0
-93 -188 0
-27 -93 0
-41 -73 0
-73 -135 0
-73 -188 0
-27 -73 0
-41 -135 0
-41 -188 0
-27 -41 0
-135 -188 0
-27 -135 0
-27 -188 0
-58 -146 0
-146 -217 0
-20 -146 0
-17 -146 0
-71 -146 0
-58 -217 0
-20 -58 0
-17 -58 0
-58 -71 0
-20 -217 0
-17 -217 0
-71 -217 0
-17 -20 0
-20 -71 0
-17 -71 0
-161 -173 0
-63 -161 0
-92 -161 0
-93 -161 0
-146 -161 0
-63 -173 0
-92 -173 0
-93 -173 0
-146 -173 0
-63 -92 0
-63 -93 0
-63 -146 0
-92 -93 0
-92 -146 0
-93 -146 0
-205 -208 0
-205 -210 0
-174 -205 0
-73 -205 0
-58 -205 0
-208 -210 0
-174 -208 0
-73 -208 0
-58 -208 0
-174 -210 0
-73 -210 0
-58 -210 0
-73 -174 0
-58 -174 0
-58 -73 0
-115 -118 0
-118 -212 0
-118 -216 0
-41 -118 0
-118 -217 0
-115 -212 0
-115 -216 0
-41 -115 0
-115 -217 0
-212 -216 0
-41 -212 0
-212 -217 0
-41 -216 0
-216 -217 0
-41 -217 0
-40 -54 0
-16 -40 0
-40 -67 0
-40 -135 0
-20 -40 0
-16 -54 0
-54 -67 0
-54 -135 0
-20 -54 0
-16 -67 0
-16 -135 0
-16 -20 0
-67 -135 0
-20 -67 0
-20 -135 0
-47 -80 0
-80 -129 0
-57 -80 0
-80 -188 0
-17 -80 0
-47 -129 0
-47 -57 0
-47 -188 0
-17 -47 0
-57 -129 0
-129 -188 0
-17 -129 0
-57 -188 0
-17 -57 0
-17 -188 0
-103 -164 0
-103 -214 0
-85 -103 0
-27 -103 0
-71 -103 0
-164 -214 0
-85 -164 0
-27 -164 0
-71 -164 0
-85 -214 0
-27 -214 0
-71 -214 0
-27 -85 0
-71 -85 0
-27 -71 0
-140 -219 0
-109 -219 0
-72 -219 0
-219 -227 0
-109 -140 0
-72 -140 0
-140 -227 0
-72 -109 0
-109 -227 0
-72 -227 0
-13 -170 0
-150 -170 0
-50 -170 0
-170 -220 0
-13 -150 0
-13 -50 0
-13 -220 0
-50 -150 0
-150 -220 0
-50 -220 0
-66 -68 0
-68 -222 0
-68 -224 0
-68 -204 0
-66 -222 0
-66 -224 0
-66 -204 0
-222 -224 0
-204 -222 0
-204 -224 0
-104 -117 0
-102 -117 0
-117 -179 0
-117 -207 0
-102 -104 0
-104 -179 0
-104 -207 0
-102 -179 0
-102 -207 0
-179 -207 0
-84 -114 0
-114 -165 0
-114 -184 0
-114 -190 0
-84 -165 0
-84 -184 0
-84 -190 0
-165 -184 0
-165 -190 0
-184 -190 0
-170 -219 0
-68 -219 0
-117 -219 0
-114 -219 0
-68 -170 0
-117 -170 0
-114 -170 0
-68 -117 0
-68 -114 0
-114 -117 0
-13 -140 0
-66 -140 0
-104 -140 0
-84 -140 0
-13 -66 0
-13 -104 0
-13 -84 0
-66 -104 0
-66 -84 0
-84 -104 0
-109 -150 0
-109 -222 0
-102 -109 0
-109 -165 0
-150 -222 0
-102 -150 0
-150 -165 0
-102 -222 0
-165 -222 0
-102 -165 0
-50 -72 0
-72 -224 0
-72 -179 0
-72 -184 0
-50 -224 0
-50 -179 0
-50 -184 0
-179 -224 0
-184 -224 0
-179 -184 0
-220 -227 0
-204 -227 0
-207 -227 0
-190 -227 0
-204 -220 0
-207 -220 0
-190 -220 0
-204 -207 0
-190 -204 0
-190 -207 0
-83 -159 0
-76 -159 0
-159 -225 0
-76 -83 0
-83 -225 0
-76 -225 0
-65 -133 0
-88 -133 0
-49 -133 0
-65 -88 0
-49 -65 0
-49 -88 0
-90 -177 0
-90 -218 0
-90 -139 0
-177 -218 0
-139 -177 0
-139 -218 0
-108 -228 0
-34 -108 0
-30 -108 0
-34 -228 0
-30 -228 0
-30 -34 0
-133 -159 0
-90 -159 0
-108 -159 0
-90 -133 0
-108 -133 0
-90 -108 0
-65 -83 0
-83 -177 0
-83 -228 0
-65 -177 0
-65 -228 0
-177 -228 0
-76 -88 0
-76 -218 0
-34 -76 0
-88 -218 0
-34 -88 0
-34 -218 0
-49 -225 0
-139 -225 0
-30 -225 0
-49 -139 0
-30 -49 0
-30 -139 0
-142 -239 0
-142 -144 0
-60 -142 0
-144 -239 0
-60 -239 0
-60 -144 0
-97 -106 0
-79 -97 0
-97 -98 0
-79 -106 0
-98 -106 0
-79 -98 0
-22 -87 0
-22 -229 0
-22 -230 0
-87 -229 0
-87 -230 0
-229 -230 0
-124 -231 0
-11 -231 0
-7 -231 0
-11 -124 0
-7 -124 0
-7 -11 0
-97 -142 0
-22 -142 0
-142 -231 0
-22 -97 0
-97 -231 0
-22 -231 0
-106 -239 0
-87 -239 0
-124 -239 0
-87 -106 0
-106 -124 0
-87 -124 0
-79 -144 0
-144 -229 0
-11 -144 0
-79 -229 0
-11 -79 0
-11 -229 0
-60 -98 0
-60 -230 0
-7 -60 0
-98 -230 0
-7 -98 0
-7 -230 0
-15 -130 0
-15 -215 0
-15 -125 0
-15 -91 0
-15 -232 0
-130 -215 0
-125 -130 0
-91 -130 0
-130 -232 0
-125 -215 0
-91 -215 0
-215 -232 0
-91 -125 0
-125 -232 0
-91 -232 0
-18 -21 0
-21 -70 0
-21 -166 0
-21 -233 0
-21 -168 0
-18 -70 0
-18 -166 0
-18 -233 0
-18 -168 0
-70 -166 0
-70 -233 0
-70 -168 0
-166 -233 0
-166 -168 0
-168 -233 0
-138 -234 0
-64 -234 0
-56 -234 0
-48 -234 0
-234 -235 0
-64 -138 0
-56 -138 0
-48 -138 0
-138 -235 0
-56 -64 0
-48 -64 0
-64 -235 0
-48 -56 0
-56 -235 0
-48 -235 0
-236 -237 0
-116 -236 0
-82 -236 0
-236 -238 0
-78 -236 0
-116 -237 0
-82 -237 0
-237 -238 0
-78 -237 0
-82 -116 0
-116 -238 0
-78 -116 0
-82 -238 0
-78 -82 0
-78 -238 0
-6 -10 0
-10 -148 0
-10 -143 0
-10 -61 0
-10 -240 0
-6 -148 0
-6 -143 0
-6 -61 0
-6 -240 0
-143 -148 0
-61 -148 0
-148 -240 0
-61 -143 0
-143 -240 0
-61 -240 0
-183 -241 0
-36 -183 0
-32 -183 0
-183 -185 0
-183 -192 0
-36 -241 0
-32 -241 0
-185 -241 0
-192 -241 0
-32 -36 0
-36 -185 0
-36 -192 0
-32 -185 0
-32 -192 0
-185 -192 0
-15 -21 0
-15 -234 0
-15 -236 0
-10 -15 0
-15 -183 0
-21 -234 0
-21 -236 0
-10 -21 0
-21 -183 0
-234 -236 0
-10 -234 0
-183 -234 0
-10 -236 0
-183 -236 0
-10 -183 0
-18 -130 0
-130 -138 0
-130 -237 0
-6 -130 0
-130 -241 0
-18 -138 0
-18 -237 0
-6 -18 0
-18 -241 0
-138 -237 0
-6 -138 0
-138 -241 0
-6 -237 0
-237 -241 0
-6 -241 0
-70 -215 0
-64 -215 0
-116 -215 0
-148 -215 0
-36 -215 0
-64 -70 0
-70 -116 0
-70 -148 0
-36 -70 0
-64 -116 0
-64 -148 0
-36 -64 0
-116 -148 0
-36 -116 0
-36 -148 0
-125 -166 0
-56 -125 0
-82 -125 0
-125 -143 0
-32 -125 0
-56 -166 0
-82 -166 0
-143 -166 0
-32 -166 0
-56 -82 0
-56 -143 0
-32 -56 0
-82 -143 0
-32 -82 0
-32 -143 0
-91 -233 0
-48 -91 0
-91 -238 0
-61 -91 0
-91 -185 0
-48 -233 0
-233 -238 0
-61 -233 0
-185 -233 0
-48 -238 0
-48 -61 0
-48 -185 0
-61 -238 0
-185 -238 0
-61 -185 0
-168 -232 0
-232 -235 0
-78 -232 0
-232 -240 0
-192 -232 0
-168 -235 0
-78 -168 0
-168 -240 0
-168 -192 0
-78 -235 0
-235 -240 0
-192 -235 0
-78 -240 0
-78 -192 0
-192 -240 0
-153 -156 0
-156 -242 0
-155 -156 0
-156 -221 0
-111 -156 0
-153 -242 0
-153 -155 0
-153 -221 0
-111 -153 0
-155 -242 0
-221 -242 0
-111 -242 0
-155 -221 0
-111 -155 0
-111 -221 0
-160 -223 0
-160 -206 0
-119 -160 0
-39 -160 0
-81 -160 0
-206 -223 0
-119 -223 0
-39 -223 0
-81 -223 0
-119 -206 0
-39 -206 0
-81 -206 0
-39 -119 0
-81 -119 0
-39 -81 0
-9 -172 0
-172 -209 0
-113 -172 0
-53 -172 0
-46 -172 0
-9 -209 0
-9 -113 0
-9 -53 0
-9 -46 0
-113 -209 0
-53 -209 0
-46 -209 0
-53 -113 0
-46 -113 0
-46 -53 0
-163 -243 0
-38 -243 0
-167 -243 0
-191 -243 0
-26 -243 0
-38 -163 0
-163 -167 0
-163 -191 0
-26 -163 0
-38 -167 0
-38 -191 0
-26 -38 0
-167 -191 0
-26 -167 0
-26 -191 0
-55 -62 0
-62 -211 0
-62 -213 0
-14 -62 0
-62 -131 0
-55 -211 0
-55 -213 0
-14 -55 0
-55 -131 0
-211 -213 0
-14 -211 0
-131 -211 0
-14 -213 0
-131 -213 0
-14 -131 0
-94 -181 0
-74 -94 0
-42 -94 0
-94 -136 0
-94 -187 0
-74 -181 0
-42 -181 0
-136 -181 0
-181 -187 0
-42 -74 0
-74 -136 0
-74 -187 0
-42 -136 0
-42 -187 0
-136 -187 0
-156 -160 0
-156 -172 0
-156 -243 0
-62 -156 0
-94 -156 0
-160 -172 0
-160 -243 0
-62 -160 0
-94 -160 0
-172 -243 0
-62 -172 0
-94 -172 0
-62 -243 0
-94 -243 0
-62 -94 0
-153 -223 0
-9 -153 0
-153 -163 0
-55 -153 0
-153 -181 0
-9 -223 0
-163 -223 0
-55 -223 0
-181 -223 0
-9 -163 0
-9 -55 0
-9 -181 0
-55 -163 0
-163 -181 0
-55 -181 0
-206 -242 0
-209 -242 0
-38 -242 0
-211 -242 0
-74 -242 0
-206 -209 0
-38 -206 0
-206 -211 0
-74 -206 0
-38 -209 0
-209 -211 0
-74 -209 0
-38 -211 0
-38 -74 0
-74 -211 0
-119 -155 0
-113 -155 0
-155 -167 0
-155 -213 0
-42 -155 0
-113 -119 0
-119 -167 0
-119 -213 0
-42 -119 0
-113 -167 0
-113 -213 0
-42 -113 0
-167 -213 0
-42 -167 0
-42 -213 0
-39 -221 0
-53 -221 0
-191 -221 0
-14 -221 0
-136 -221 0
-39 -53 0
-39 -191 0
-14 -39 0
-39 -136 0
-53 -191 0
-14 -53 0
-53 -136 0
-14 -191 0
-136 -191 0
-14 -136 0
-81 -111 0
-46 -111 0
-26 -111 0
-111 -131 0
-111 -187 0
-46 -81 0
-26 -81 0
-81 -131 0
-81 -187 0
-26 -46 0
-46 -131 0
-46 -187 0
-26 -131 0
-26 -187 0
-131 -187 0
-244 -245 0
-75 -244 0
-226 -244 0
-137 -244 0
-134 -244 0
-75 -245 0
-226 -245 0
-137 -245 0
-134 -245 0
-75 -226 0
-75 -137 0
-75 -134 0
-137 -226 0
-134 -226 0
-134 -137 0
-247 -249 0
-121 -247 0
-193 -247 0
-77 -247 0
-105 -247 0
-121 -249 0
-193 -249 0
-77 -249 0
-105 -249 0
-121 -193 0
-77 -121 0
-105 -121 0
-77 -193 0
-105 -193 0
-77 -105 0
-158 -250 0
-158 -251 0
-132 -158 0
-158 -252 0
-89 -158 0
-250 -251 0
-132 -250 0
-250 -252 0
-89 -250 0
-132 -251 0
-251 -252 0
-89 -251 0
-132 -252 0
-89 -132 0
-89 -252 0
-44 -149 0
-33 -44 0
-29 -44 0
-44 -162 0
-44 -253 0
-33 -149 0
-29 -149 0
-149 -162 0
-149 -253 0
-29 -33 0
-33 -162 0
-33 -253 0
-29 -162 0
-29 -253 0
-162 -253 0
-52 -112 0
-112 -254 0
-19 -112 0
-112 -255 0
-37 -112 0
-52 -254 0
-19 -52 0
-52 -255 0
-37 -52 0
-19 -254 0
-254 -255 0
-37 -254 0
-19 -255 0
-19 -37 0
-37 -255 0
-12 -256 0
-120 -256 0
-151 -256 0
-157 -256 0
-152 -256 0
-12 -120 0
-12 -151 0
-12 -157 0
-12 -152 0
-120 -151 0
-120 -157 0
-120 -152 0
-151 -157 0
-151 -152 0
-152 -157 0
-244 -247 0
-158 -244 0
-44 -244 0
-112 -244 0
-244 -256 0
-158 -247 0
-44 -247 0
-112 -247 0
-247 -256 0
-44 -158 0
-112 -158 0
-158 -256 0
-44 -112 0
-44 -256 0
-112 -256 0
-245 -249 0
-245 -250 0
-149 -245 0
-52 -245 0
-12 -245 0
-249 -250 0
-149 -249 0
-52 -249 0
-12 -249 0
-149 -250 0
-52 -250 0
-12 -250 0
-52 -149 0
-12 -149 0
-12 -52 0
-75 -121 0
-75 -251 0
-33 -75 0
-75 -254 0
-75 -120 0
-121 -251 0
-33 -121 0
-121 -254 0
-120 -121 0
-33 -251 0
-251 -254 0
-120 -251 0
-33 -254 0
-33 -120 0
-120 -254 0
-193 -226 0
-132 -226 0
-29 -226 0
-19 -226 0
-151 -226 0
-132 -193 0
-29 -193 0
-19 -193 0
-151 -193 0
-29 -132 0
-19 -132 0
-132 -151 0
-19 -29 0
-29 -151 0
-19 -151 0
-77 -137 0
-137 -252 0
-137 -162 0
-137 -255 0
-137 -157 0
-77 -252 0
-77 -162 0
-77 -255 0
-77 -157 0
-162 -252 0
-252 -255 0
-157 -252 0
-162 -255 0
-157 -162 0
-157 -255 0
-105 -134 0
-89 -134 0
-134 -253 0
-37 -134 0
-134 -152 0
-89 -105 0
-105 -253 0
-37 -105 0
-105 -152 0
-89 -253 0
-37 -89 0
-89 -152 0
-37 -253 0
-152 -253 0
-37 -152 0
-257 -258 0
-257 -259 0
-127 -257 0
-175 -257 0
-257 -261 0
-258 -259 0
-127 -258 0
-175 -258 0
-258 -261 0
-127 -259 0
-175 -259 0
-259 -261 0
-127 -175 0
-127 -261 0
-175 -261 0
-24 -178 0
-24 -86 0
-24 -203 0
-24 -96 0
-24 -99 0
-86 -178 0
-178 -203 0
-96 -178 0
-99 -178 0
-86 -203 0
-86 -96 0
-86 -99 0
-96 -203 0
-99 -203 0
-96 -99 0
-101 -107 0
-107 -262 0
-5 -107 0
-23 -107 0
-107 -145 0
-101 -262 0
-5 -101 0
-23 -101 0
-101 -145 0
-5 -262 0
-23 -262 0
-145 -262 0
-5 -23 0
-5 -145 0
-23 -145 0
-8 -123 0
-123 -154 0
-51 -123 0
-45 -123 0
-4 -123 0
-8 -154 0
-8 -51 0
-8 -45 0
-4 -8 0
-51 -154 0
-45 -154 0
-4 -154 0
-45 -51 0
-4 -51 0
-4 -45 0
-43 -110 0
-28 -110 0
-3 -110 0
-25 -110 0
-2 -110 0
-28 -43 0
-3 -43 0
-25 -43 0
-2 -43 0
-3 -28 0
-25 -28 0
-2 -28 0
-3 -25 0
-2 -3 0
-2 -25 0
-180 -182 0
-1 -180 0
-180 -246 0
-122 -180 0
-180 -248 0
-1 -182 0
-182 -246 0
-122 -182 0
-182 -248 0
-1 -246 0
-1 -122 0
-1 -248 0
-122 -246 0
-246 -248 0
-122 -248 0
-24 -257 0
-107 -257 0
-123 -257 0
-110 -257 0
-180 -257 0
-24 -107 0
-24 -123 0
-24 -110 0
-24 -180 0
-107 -123 0
-107 -110 0
-107 -180 0
-110 -123 0
-123 -180 0
-110 -180 0
-178 -258 0
-101 -258 0
-8 -258 0
-43 -258 0
-182 -258 0
-101 -178 0
-8 -178 0
-43 -178 0
-178 -182 0
-8 -101 0
-43 -101 0
-101 -182 0
-8 -43 0
-8 -182 0
-43 -182 0
-86 -259 0
-259 -262 0
-154 -259 0
-28 -259 0
-1 -259 0
-86 -262 0
-86 -154 0
-28 -86 0
-1 -86 0
-154 -262 0
-28 -262 0
-1 -262 0
-28 -154 0
-1 -154 0
-1 -28 0
-127 -203 0
-5 -127 0
-51 -127 0
-3 -127 0
-127 -246 0
-5 -203 0
-51 -203 0
-3 -203 0
-203 -246 0
-5 -51 0
-3 -5 0
-5 -246 0
-3 -51 0
-51 -246 0
-3 -246 0
-96 -175 0
-23 -175 0
-45 -175 0
-25 -175 0
-122 -175 0
-23 -96 0
-45 -96 0
-25 -96 0
-96 -122 0
-23 -45 0
-23 -25 0
-23 -122 0
-25 -45 0
-45 -122 0
-25 -122 0
-99 -261 0
-145 -261 0
-4 -261 0
-2 -261 0
-248 -261 0
-99 -145 0
-4 -99 0
-2 -99 0
-99 -248 0
-4 -145 0
-2 -145 0
-145 -248 0
-2 -4 0
-4 -248 0
-2 -248 0
